8
2147483647 74 95 24 24 29 76 88 
74 2147483647 21 97 3 68 70 58 
95 21 2147483647 47 18 22 75 56 
24 97 47 2147483647 40 62 73 8 
24 3 18 40 2147483647 23 12 83 
29 68 22 62 23 2147483647 49 26 
76 70 75 73 12 49 2147483647 11 
88 58 56 8 83 26 11 2147483647 
